[[18, 50, 32, 44, 24, 49, 16, 3, 51, 40, 12, 17, 26, 67, 76, 75, 4, 30, 68, 2, 6, 73, 33, 63, 23, 56, 41, 43, 42, 64, 22, 62, 28, 61, 74, 21, 48, 47], [69, 36, 71, 60, 70, 20, 37, 5, 15, 57, 29, 45, 27, 13, 52, 34, 46, 8, 54, 19, 35, 7, 53, 14, 59, 11, 66, 65, 38, 10, 58, 72, 31, 39, 9, 25, 55]]